SPARKNaCl/why3-z3/sparknacl-secretbox.adb_156_16_range_check2_1.smt2
;; produced by z3_gnatprove.drv ;;
(set-info :smt-lib-version 2.5)
(set-info :source |VC generated by SPARK 2014|)
(set-info :category industrial)
(set-info :status unknown)
;;; generated by SMT-LIB2 driver
;;; SMT-LIB2 driver: bit-vectors, common part
;;; SMT-LIB2: integer arithmetic
(define-fun __cdiv ((x Int) (y Int)) Int (ite (>= x 0) (div x y) (- (div (- x) y))))
(define-fun __cmod ((x Int) (y Int)) Int (ite (>= x 0) (mod x y) (- (mod (- x) y))))
(declare-datatypes ()
  ((bool__ref (bool__refqtmk (bool__content Bool)))))

;; "mod"
(define-fun mod1 ((x Int) (y Int)) Int
  (ite (<= 0 y) (mod x y) (- (mod (- x) y))))

(declare-sort tinteger_32B 0)

;; "tinteger_32B'int"
(declare-fun tinteger_32Bqtint (tinteger_32B) Int)

;; "tinteger_32B'axiom"
(assert
  (forall ((i tinteger_32B))
    (and
      (<= (- 2147483648) (tinteger_32Bqtint i))
      (<= (tinteger_32Bqtint i) 2147483647))))

;; "in_range"
(define-fun in_range ((x Int)) Bool
  (and (<= (- 2147483648) x) (<= x 2147483647)))

;; "to_rep"
(define-fun to_rep ((x tinteger_32B)) Int
  (tinteger_32Bqtint x))

;; "of_rep"
(declare-fun of_rep (Int) tinteger_32B)

;; "inversion_axiom"
(assert
  (forall ((x tinteger_32B))
    (! (= (of_rep (to_rep x)) x) :pattern ((to_rep x)) )))

;; "range_axiom"
(assert
  (forall ((x tinteger_32B))
    (! (in_range (to_rep x)) :pattern ((to_rep x)) )))

;; "coerce_axiom"
(assert
  (forall ((x Int))
    (! (=> (in_range x) (= (to_rep (of_rep x)) x)) :pattern ((to_rep
                                                               (of_rep x))) )))

;; "in_range"
(define-fun in_range1 ((x Int)) Bool
  (and (<= 0 x) (<= x 2147483647)))

(declare-sort byte 0)

;; "to_rep"
(declare-fun to_rep1 (byte) (_ BitVec 8))

;; "of_rep"
(declare-fun of_rep1 ((_ BitVec 8)) byte)

;; "inversion_axiom"
(assert
  (forall ((x byte)) (! (= (of_rep1 (to_rep1 x)) x) :pattern ((to_rep1 x)) )))

;; "range_axiom"
(assert true)

;; "coerce_axiom"
(assert
  (forall ((x (_ BitVec 8)))
    (! (= (to_rep1 (of_rep1 x)) x) :pattern ((to_rep1 (of_rep1 x))) )))

(declare-sort map1 0)

;; "has_bounds"
(declare-fun has_bounds (map1
  Int
  Int) Bool)

;; "get"
(declare-fun get (map1
  Int) byte)

(declare-const len Int)

(declare-const r Int)

(declare-const null_byte_seq map1)

;; "ada___sparknacl__secretbox__gen_auth_msg__pad16__null_byte_seq__aggregate_def"
(declare-fun ada___sparknacl__secretbox__gen_auth_msg__pad16__null_byte_seq__aggregate_def ((_ BitVec 8)) map1)

;; "def_axiom"
(assert
  (forall ((temp___187 (_ BitVec 8)))
    (let ((temp___188 (ada___sparknacl__secretbox__gen_auth_msg__pad16__null_byte_seq__aggregate_def
                        temp___187)))
      (and
        (has_bounds temp___188 1 0)
        (forall ((temp___189 Int))
          (! (=>
               (and (<= 1 temp___189) (<= temp___189 0))
               (= (to_rep1 (get temp___188 temp___189)) temp___187)) :pattern (
          (get
            temp___188
            temp___189)) ))))))

;; "Assume"
(assert (in_range1 len))

;; "o"
(define-fun o () Int
  (mod1 len 16))

;; "mod_'result'unused"
(define-fun mod_qtresultqtunused () Int
  o)

;; "ada___sparknacl__secretbox__gen_auth_msg__pad16__r__assume'unused"
(define-fun ada___sparknacl__secretbox__gen_auth_msg__pad16__r__assumeqtunused 
  () Int
  o)

;; "Ensures"
(assert (in_range1 o))

;; "range_check_'result'unused"
(define-fun range_check_qtresultqtunused () Int
  o)

;; "Assume"
(assert (= o r))

;; "Assume"
(assert (in_range1 r))

(declare-const temp___1102 map1)

;; "H"
(assert (has_bounds temp___1102 1 0))

;; "H"
(assert
  (forall ((temp___190 Int))
    (! (=>
         (and (<= 1 temp___190) (<= temp___190 0))
         (= (to_rep1 (get temp___1102 temp___190)) #x00)) :pattern ((get
                                                                    temp___1102
                                                                    temp___190)) )))

;; "H"
(assert
  (= temp___1102 (ada___sparknacl__secretbox__gen_auth_msg__pad16__null_byte_seq__aggregate_def
                   #x00)))

;; "ada___sparknacl__secretbox__gen_auth_msg__pad16__null_byte_seq__aggregate_def'result'unused"
(define-fun ada___sparknacl__secretbox__gen_auth_msg__pad16__null_byte_seq__aggregate_defqtresultqtunused 
  () map1
  temp___1102)

;; "ada___sparknacl__secretbox__gen_auth_msg__pad16__null_byte_seq__assume'unused"
(define-fun ada___sparknacl__secretbox__gen_auth_msg__pad16__null_byte_seq__assumeqtunused 
  () map1
  temp___1102)

;; "Assume"
(assert (= temp___1102 null_byte_seq))

;; "Assume"
(assert (has_bounds null_byte_seq 1 0))

;; "o"
(define-fun o1 () Bool
  (ite (= r 0) true false))

;; "infix ='result'unused"
(define-fun infix_eqqtresultqtunused () Bool
  o1)

(declare-const spark__branch Bool)

;; "spark__branch'unused"
(define-fun spark__branchqtunused () bool__ref
  (bool__refqtmk spark__branch))

;; "H"
(assert (= spark__branch o1))

;; "bool__content'result'unused"
(define-fun bool__contentqtresultqtunused () Bool
  spark__branch)

;; "H"
(assert (not (= spark__branch true)))

;; "H"
(assert (<= 0 (- (- 16 r) 1)))

;; Goal "def'vc"
;; File "sparknacl-secretbox.adb", line 127, characters 0-0
(assert
  (not (<= (- (- 16 r) 1) 2147483647)))

(check-sat)
